c DELTA external-format 3-SAT challenge
p cnf 36 162
-10 4 -14 0
17 20 -34 0
15 -1 12 0
-9 -28 -21 0
-5 -2 -4 0
28 5 -12 0
35 -5 12 0
20 -21 -18 0
-2 -18 -35 0
-12 23 -3 0
-16 -14 17 0
22 3 8 0
-28 -10 19 0
-13 10 36 0
26 31 -35 0
29 -20 9 0
-17 -16 -29 0
-18 21 -5 0
9 -4 20 0
-22 -29 20 0
28 -23 36 0
-2 3 -33 0
36 22 32 0
1 -31 5 0
-24 -31 25 0
-6 31 -16 0
30 35 -32 0
-30 27 -21 0
6 13 -1 0
-5 -16 32 0
-32 -1 18 0
13 12 17 0
-13 8 31 0
-1 36 -32 0
16 12 32 0
26 -1 -33 0
-13 35 25 0
15 -2 -32 0
4 -14 17 0
28 13 -27 0
-8 34 7 0
21 -12 -4 0
-33 -32 31 0
8 15 -7 0
-17 6 -25 0
21 18 25 0
-16 19 -24 0
-9 14 -15 0
18 25 -31 0
30 -31 27 0
25 12 30 0
-15 30 5 0
-35 -29 -27 0
11 -26 -36 0
34 -10 -6 0
-35 -17 9 0
20 -18 -4 0
31 26 -1 0
7 8 14 0
17 19 1 0
22 -2 -19 0
16 -4 -28 0
-28 -4 -23 0
36 6 -30 0
-9 -14 10 0
22 -11 -19 0
-12 25 -3 0
-3 -30 -36 0
-2 33 12 0
34 -20 -13 0
18 22 -14 0
21 -36 14 0
-14 -29 -36 0
14 6 31 0
-15 20 -8 0
10 9 22 0
24 -12 -13 0
-24 -19 1 0
-33 31 10 0
34 -25 4 0
8 -17 27 0
28 -7 24 0
-27 -9 -18 0
-18 15 36 0
-18 20 24 0
10 30 -29 0
14 -11 20 0
-23 30 -32 0
-3 11 -14 0
-30 -7 13 0
-25 -2 6 0
-25 -33 -12 0
-20 -32 -27 0
-7 -11 6 0
-29 -9 13 0
22 4 -28 0
-9 20 -18 0
13 -29 15 0
27 26 -4 0
-32 -8 -29 0
-20 7 26 0
-7 -15 2 0
21 -25 18 0
16 -6 24 0
-5 -31 -6 0
13 12 -24 0
-14 28 -31 0
-5 10 -32 0
27 10 -18 0
-4 16 -24 0
12 -34 4 0
-7 -9 -30 0
11 10 -1 0
34 -1 -14 0
12 11 26 0
-9 11 -32 0
17 5 -4 0
-24 15 -26 0
30 19 -1 0
23 -28 -27 0
17 -33 -31 0
30 -12 -4 0
-26 -11 -5 0
-29 -12 23 0
-15 -16 -7 0
14 17 15 0
3 -24 -2 0
29 -34 -30 0
-22 -25 -31 0
2 -22 25 0
-14 -4 -27 0
36 -3 23 0
12 21 24 0
-29 28 -34 0
-31 28 20 0
-23 -4 21 0
3 -13 10 0
13 29 22 0
2 27 -17 0
18 -1 3 0
-31 -35 14 0
24 19 10 0
6 -33 1 0
13 -30 -11 0
25 -7 16 0
25 -15 18 0
11 26 22 0
18 3 16 0
25 1 14 0
7 35 -17 0
-12 -29 -2 0
-2 28 -34 0
9 23 35 0
-9 -12 17 0
-30 13 27 0
-32 16 1 0
22 18 -33 0
8 6 17 0
-24 -16 -11 0
33 -25 22 0
35 -10 -6 0
-31 25 17 0
